\ Model idol-model
\ LP format - for model browsing. Use MPS format to capture full model detail.
\ Signature: 0x3027206e2faa1350
Minimize
 
Subject To
 R0000000: 707 __copy_C0000029 + 134 __copy_C0000028 + 429 __copy_C0000027
   + 868 __copy_C0000026 + 567 __copy_C0000025 + 788 __copy_C0000024
   + 503 __copy_C0000023 + 98 __copy_C0000022 + 201 __copy_C0000021
   + 658 __copy_C0000020 + 881 __copy_C0000019 + 553 __copy_C0000018
   + 625 __copy_C0000017 + 665 __copy_C0000016 + 664 __copy_C0000015
   + 179 __copy_C0000014 + 320 __copy_C0000013 + 131 __copy_C0000012
   + 375 __copy_C0000011 + 331 __copy_C0000010 + 910 __copy_C0000009
   + 461 __copy_C0000008 + 708 __copy_C0000007 + 679 __copy_C0000006
   + 436 __copy_C0000005 + 870 __copy_C0000004 + 579 __copy_C0000003
   + 288 __copy_C0000002 + 699 __copy_C0000001 + 526 __copy_C0000000
   <= 7916
 IC0: __copy_C0000000 + x0 <= 1
 IC1: __copy_C0000001 + x1 <= 1
 IC2: __copy_C0000002 + x2 <= 1
 IC3: __copy_C0000003 + x3 <= 1
 IC4: __copy_C0000004 + x4 <= 1
 IC5: __copy_C0000005 + x5 <= 1
 IC6: __copy_C0000006 + x6 <= 1
 IC7: __copy_C0000007 + x7 <= 1
 IC8: __copy_C0000008 + x8 <= 1
 IC9: __copy_C0000009 + x9 <= 1
 IC10: __copy_C0000010 + x10 <= 1
 IC11: __copy_C0000011 + x11 <= 1
 IC12: __copy_C0000012 + x12 <= 1
 IC13: __copy_C0000013 + x13 <= 1
 IC14: __copy_C0000014 + x14 <= 1
 IC15: __copy_C0000015 + x15 <= 1
 IC16: __copy_C0000016 + x16 <= 1
 IC17: __copy_C0000017 + x17 <= 1
 IC18: __copy_C0000018 + x18 <= 1
 IC19: __copy_C0000019 + x19 <= 1
 IC20: __copy_C0000020 + x20 <= 1
 IC21: __copy_C0000021 + x21 <= 1
 IC22: __copy_C0000022 + x22 <= 1
 IC23: __copy_C0000023 + x23 <= 1
 IC24: __copy_C0000024 + x24 <= 1
 IC25: __copy_C0000025 + x25 <= 1
 IC26: __copy_C0000026 + x26 <= 1
 IC27: __copy_C0000027 + x27 <= 1
 IC28: __copy_C0000028 + x28 <= 1
 IC29: __copy_C0000029 + x29 <= 1
Bounds
Binaries
 __copy_C0000029 __copy_C0000028 __copy_C0000027 __copy_C0000026
 __copy_C0000025 __copy_C0000024 __copy_C0000023 __copy_C0000022
 __copy_C0000021 __copy_C0000020 __copy_C0000019 __copy_C0000018
 __copy_C0000017 __copy_C0000016 __copy_C0000015 __copy_C0000014
 __copy_C0000013 __copy_C0000012 __copy_C0000011 __copy_C0000010
 __copy_C0000009 __copy_C0000008 __copy_C0000007 __copy_C0000006
 __copy_C0000005 __copy_C0000004 __copy_C0000003 __copy_C0000002
 __copy_C0000001 __copy_C0000000 x0 x1 x2 x3 x4 x5 x6 x7 x8 x9 x10 x11 x12
 x13 x14 x15 x16 x17 x18 x19 x20 x21 x22 x23 x24 x25 x26 x27 x28 x29
End
